cases/pglib-opf/pglib_opf_case3_lmbd.m
ipopt
ACR
[info | PowerModels]: removing 3 cost terms from generator 3: Float64[]

******************************************************************************
This program contains Ipopt, a library for large-scale nonlinear optimization.
 Ipopt is released as open source code under the Eclipse Public License (EPL).
         For more information visit http://projects.coin-or.org/Ipopt
******************************************************************************

This is Ipopt version 3.13.2, running with linear solver mumps.
NOTE: Other linear solvers might be more efficient (see Ipopt documentation).

Number of nonzeros in equality constraint Jacobian...:      150
Number of nonzeros in inequality constraint Jacobian.:       72
Number of nonzeros in Lagrangian Hessian.............:      122

Total number of variables............................:       23
                     variables with only lower bounds:        0
                variables with lower and upper bounds:       23
                     variables with only upper bounds:        0
Total number of equality constraints.................:       19
Total number of inequality constraints...............:       18
        inequality constraints with only lower bounds:        6
   inequality constraints with lower and upper bounds:        0
        inequality constraints with only upper bounds:       12

iter    objective    inf_pr   inf_du lg(mu)  ||d||  lg(rg) alpha_du alpha_pr  ls
   0  6.3949934e+00 1.09e+00 1.67e+01  -1.0 0.00e+00    -  0.00e+00 0.00e+00   0
   1  4.7896171e+03 9.41e-02 1.56e+02  -1.0 1.80e+00    -  5.79e-03 9.14e-01h  1
   2  4.8650184e+03 9.29e-02 1.43e+02  -1.0 4.16e-01    -  4.11e-01 8.69e-02h  1
   3  5.1706972e+03 1.24e-01 8.99e+01  -1.0 5.44e-01    -  1.75e-01 3.69e-01h  1
   4  5.3635404e+03 1.09e-01 5.91e+01  -1.0 1.88e-01    -  6.59e-01 3.45e-01h  1
   5  5.4618167e+03 9.56e-02 4.70e+01  -1.0 2.13e-01    -  9.90e-01 2.62e-01h  1
   6  5.6199850e+03 4.80e-02 2.06e+01  -1.0 2.48e-01    -  9.76e-01 5.54e-01h  1
   7  5.6723026e+03 3.24e-02 1.43e+01  -1.0 2.05e-01    -  3.83e-01 3.64e-01h  1
   8  5.6752690e+03 3.18e-02 1.23e+02  -1.0 9.50e-02    -  1.57e-01 3.28e-02h  1
   9  5.7383929e+03 1.57e-02 8.14e+01  -1.0 1.84e-01    -  2.37e-01 5.17e-01h  1
iter    objective    inf_pr   inf_du lg(mu)  ||d||  lg(rg) alpha_du alpha_pr  ls
  10  5.8027618e+03 2.67e-03 6.11e+01  -1.0 7.13e-02    -  6.00e-01 8.43e-01h  1
  11  5.8144411e+03 5.66e-04 2.11e-01  -1.0 5.45e-02    -  1.00e+00 1.00e+00h  1
  12  5.8131841e+03 8.83e-06 1.22e-02  -1.7 7.66e-03    -  1.00e+00 1.00e+00f  1
  13  5.8127205e+03 2.47e-06 2.19e-03  -2.5 3.52e-03    -  1.00e+00 1.00e+00f  1
  14  5.8126469e+03 7.57e-08 8.64e-05  -3.8 6.30e-04    -  1.00e+00 1.00e+00f  1
  15  5.8126430e+03 1.95e-10 6.86e-07  -5.7 3.19e-05    -  1.00e+00 1.00e+00h  1
  16  5.8126429e+03 2.21e-12 2.71e-03  -8.6 3.54e-07    -  1.00e+00 9.89e-01h  1
  17  5.8126429e+03 1.69e-16 9.76e-10  -8.6 5.48e-10    -  1.00e+00 1.00e+00f  1

Number of Iterations....: 17

                                   (scaled)                 (unscaled)
Objective...............:   1.1625285879818857e+03    5.8126429399094286e+03
Dual infeasibility......:   9.7579455626828349e-10    4.8789727813414174e-09
Constraint violation....:   1.6913553890773869e-16    1.6913553890773869e-16
Complementarity.........:   3.5728418003423891e-09    1.7864209001711944e-08
Overall NLP error.......:   3.5728418003423891e-09    1.7864209001711944e-08


Number of objective function evaluations             = 18
Number of objective gradient evaluations             = 18
Number of equality constraint evaluations            = 18
Number of inequality constraint evaluations          = 18
Number of equality constraint Jacobian evaluations   = 18
Number of inequality constraint Jacobian evaluations = 18
Number of Lagrangian Hessian evaluations             = 17
Total CPU secs in IPOPT (w/o function evaluations)   =      0.233
Total CPU secs in NLP function evaluations           =      0.206

EXIT: Optimal Solution Found.
Time to Solution........:1.1245670318603516
